(declare-fun var0 () String)
(declare-fun var1 () String)
(declare-fun var2 () String)
(declare-fun var3 () String)
(declare-fun var4 () String)
(declare-fun var5 () String)
(declare-fun var6 () String)
(declare-fun var7 () String)
(declare-fun var8 () String)
(declare-fun var9 () String)
(declare-fun var10 () String)
(declare-fun var11 () String)
(declare-fun var12 () String)
(declare-fun var13 () String)
(declare-fun var14 () String)
(declare-fun var15 () String)
(declare-fun var16 () String)
(declare-fun var17 () String)
(declare-fun var18 () String)
(declare-fun var19 () String)
(declare-fun var20 () String)
(declare-fun var21 () String)
(declare-fun var22 () String)
(declare-fun var23 () String)
(declare-fun var24 () String)
(declare-fun var25 () String)
(declare-fun var26 () String)
(declare-fun var27 () String)
(declare-fun var28 () String)
(declare-fun var29 () String)
(declare-fun var30 () String)
(declare-fun var31 () String)
(declare-fun var32 () String)
(declare-fun var33 () String)
(declare-fun var34 () String)
(declare-fun var35 () String)
(declare-fun var36 () String)
(declare-fun var37 () String)
(declare-fun var38 () String)
(declare-fun var39 () String)
(declare-fun var40 () String)
(declare-fun var41 () String)
(declare-fun var42 () String)
(declare-fun var43 () String)
(declare-fun var44 () String)
(declare-fun var45 () String)
(declare-fun var46 () String)
(declare-fun var47 () String)
(declare-fun var48 () String)
(declare-fun var49 () String)
(declare-fun var50 () String)
(declare-fun var51 () String)
(declare-fun var52 () String)
(declare-fun var53 () String)
(declare-fun var54 () String)
(declare-fun var55 () String)
(declare-fun var56 () String)
(declare-fun var57 () String)
(declare-fun var58 () String)
(declare-fun var59 () String)
(declare-fun var60 () String)
(declare-fun var61 () String)
(declare-fun var62 () String)
(declare-fun var63 () String)
(declare-fun var64 () String)
(declare-fun var65 () String)
(declare-fun var66 () String)
(declare-fun var67 () String)
(declare-fun var68 () String)
(declare-fun var69 () String)
(declare-fun var70 () String)
(declare-fun var71 () String)
(declare-fun var72 () String)
(declare-fun var73 () String)
(declare-fun var74 () String)
(declare-fun var75 () String)
(declare-fun var76 () String)
(declare-fun var77 () String)
(declare-fun var78 () String)
(declare-fun var79 () String)
(declare-fun var80 () String)
(declare-fun var81 () String)
(declare-fun var82 () String)
(declare-fun var83 () String)
(declare-fun var84 () String)
(declare-fun var85 () String)
(declare-fun var86 () String)
(declare-fun var87 () String)
(declare-fun var88 () String)
(declare-fun var89 () String)
(assert (= 54 (Length var0)))
(assert (= 53 (Length var1)))
(assert (= 42 (Length var2)))
(assert (= 94 (Length var3)))
(assert (= 60 (Length var4)))
(assert (= 98 (Length var5)))
(assert (= 27 (Length var6)))
(assert (= 78 (Length var7)))
(assert (= 71 (Length var8)))
(assert (= 82 (Length var9)))
(assert (= 4 (Length var10)))
(assert (= 88 (Length var11)))
(assert (= 50 (Length var12)))
(assert (= 62 (Length var13)))
(assert (= 11 (Length var14)))
(assert (= 80 (Length var15)))
(assert (= 7 (Length var16)))
(assert (= 19 (Length var17)))
(assert (= 64 (Length var18)))
(assert (= 35 (Length var19)))
(assert (= 19 (Length var20)))
(assert (= 10 (Length var21)))
(assert (= 91 (Length var22)))
(assert (= 49 (Length var23)))
(assert (= 68 (Length var24)))
(assert (= 49 (Length var25)))
(assert (= 84 (Length var26)))
(assert (= 55 (Length var27)))
(assert (= 53 (Length var28)))
(assert (= 84 (Length var29)))
(assert (= 63 (Length var30)))
(assert (= 33 (Length var31)))
(assert (= 82 (Length var32)))
(assert (= 79 (Length var33)))
(assert (= 40 (Length var34)))
(assert (= 47 (Length var35)))
(assert (= 9 (Length var36)))
(assert (= 79 (Length var37)))
(assert (= 11 (Length var38)))
(assert (= 31 (Length var39)))
(assert (= 57 (Length var40)))
(assert (= 30 (Length var41)))
(assert (= 38 (Length var42)))
(assert (= 19 (Length var43)))
(assert (= 33 (Length var44)))
(assert (= 68 (Length var45)))
(assert (= 79 (Length var46)))
(assert (= 67 (Length var47)))
(assert (= 30 (Length var48)))
(assert (= 69 (Length var49)))
(assert (= 92 (Length var50)))
(assert (= 71 (Length var51)))
(assert (= 13 (Length var52)))
(assert (= 45 (Length var53)))
(assert (= 8 (Length var54)))
(assert (= 1 (Length var55)))
(assert (= 49 (Length var56)))
(assert (= 3 (Length var57)))
(assert (= 15 (Length var58)))
(assert (= 28 (Length var59)))
(assert (= 6 (Length var60)))
(assert (= 42 (Length var61)))
(assert (= 71 (Length var62)))
(assert (= 78 (Length var63)))
(assert (= 4 (Length var64)))
(assert (= 94 (Length var65)))
(assert (= 79 (Length var66)))
(assert (= 49 (Length var67)))
(assert (= 66 (Length var68)))
(assert (= 42 (Length var69)))
(assert (= 81 (Length var70)))
(assert (= 12 (Length var71)))
(assert (= 10 (Length var72)))
(assert (= 90 (Length var73)))
(assert (= 87 (Length var74)))
(assert (= 75 (Length var75)))
(assert (= 0 (Length var76)))
(assert (= 62 (Length var77)))
(assert (= 44 (Length var78)))
(assert (= 27 (Length var79)))
(assert (= 28 (Length var80)))
(assert (= 13 (Length var81)))
(assert (= 37 (Length var82)))
(assert (= 16 (Length var83)))
(assert (= 64 (Length var84)))
(assert (= 28 (Length var85)))
(assert (= 83 (Length var86)))
(assert (= 13 (Length var87)))
(assert (= 93 (Length var88)))
(assert (= 10 (Length var89)))
(assert (= 98 (Length (Concat var47 var39))))
(assert (= 116 (Length (Concat var30 var28))))
(assert (= 158 (Length (Concat var86 var75))))
(assert (= 81 (Length (Concat var62 var89))))
(assert (= 90 (Length (Concat var70 var36))))
(assert (= 125 (Length (Concat var50 var31))))
(assert (= 127 (Length (Concat var23 var7))))
(assert (= 22 (Length (Concat var83 var60))))
(assert (= 21 (Length (Concat var21 var14))))
(check-sat)